(set-logic HORN)
(declare-fun state (Bool Bool Bool Bool (Array Int Int) (Array Int Int) (Array Int Int) (Array Int Int) (Array Int Int) (Array Int Int) Int Int Int Int) Bool)
(assert (forall ((|!pc[3]| Bool) (|!pc[2]| Bool) (|!pc[1]| Bool) (|!pc[0]| Bool) (|!{a2.2}| (Array Int Int)) (|!{a1.1}| (Array Int Int)) (|!{a3.3}| (Array Int Int)) (|!{a4.4}| (Array Int Int)) (|!{a5.5}| (Array Int Int)) (|!{a6.6}| (Array Int Int)) (|!{N}| Int) (|!{x}| Int) (|!{i}| Int) (|proph0| Int) (|proph0.next| Int) (|nd<0>| Int) (|!{a1.1}.next| (Array Int Int)) (|%{a1.1}#1| (Array Int Int)) (|!{a2.2}.next| (Array Int Int)) (|%{a2.2}#1| (Array Int Int)) (|!{a3.3}.next| (Array Int Int)) (|%{a3.3}#1| (Array Int Int)) (|!{a4.4}.next| (Array Int Int)) (|%{a4.4}#1| (Array Int Int)) (|!{a5.5}.next| (Array Int Int)) (|%{a5.5}#1| (Array Int Int)) (|!{a6.6}.next| (Array Int Int)) (|%{a6.6}#1| (Array Int Int)) (|!{N}.next| Int) (|!{i}.next| Int) (|!{x}.next| Int) (|%{x}#1| Int) (|!pc[1].next| Bool) (|!pc[0].next| Bool) (|!pc[2].next| Bool) (|!pc[3].next| Bool) (|nd_char<0>| Int)) (=> (and (and (and (not |!pc[0]|) (not |!pc[1]|)) (not |!pc[2]|)) (not |!pc[3]|)) (state |!pc[3]| |!pc[2]| |!pc[1]| |!pc[0]| |!{a2.2}| |!{a1.1}| |!{a3.3}| |!{a4.4}| |!{a5.5}| |!{a6.6}| |!{N}| |!{x}| |!{i}| |proph0|))))
(assert (forall ((|!pc[3]| Bool) (|!pc[2]| Bool) (|!pc[1]| Bool) (|!pc[0]| Bool) (|!{a2.2}| (Array Int Int)) (|!{a1.1}| (Array Int Int)) (|!{a3.3}| (Array Int Int)) (|!{a4.4}| (Array Int Int)) (|!{a5.5}| (Array Int Int)) (|!{a6.6}| (Array Int Int)) (|!{N}| Int) (|!{x}| Int) (|!{i}| Int) (|proph0| Int) (|proph0.next| Int) (|nd<0>| Int) (|!{a1.1}.next| (Array Int Int)) (|%{a1.1}#1| (Array Int Int)) (|!{a2.2}.next| (Array Int Int)) (|%{a2.2}#1| (Array Int Int)) (|!{a3.3}.next| (Array Int Int)) (|%{a3.3}#1| (Array Int Int)) (|!{a4.4}.next| (Array Int Int)) (|%{a4.4}#1| (Array Int Int)) (|!{a5.5}.next| (Array Int Int)) (|%{a5.5}#1| (Array Int Int)) (|!{a6.6}.next| (Array Int Int)) (|%{a6.6}#1| (Array Int Int)) (|!{N}.next| Int) (|!{i}.next| Int) (|!{x}.next| Int) (|%{x}#1| Int) (|!pc[1].next| Bool) (|!pc[0].next| Bool) (|!pc[2].next| Bool) (|!pc[3].next| Bool) (|nd_char<0>| Int)) (=> (and (state |!pc[3]| |!pc[2]| |!pc[1]| |!pc[0]| |!{a2.2}| |!{a1.1}| |!{a3.3}| |!{a4.4}| |!{a5.5}| |!{a6.6}| |!{N}| |!{x}| |!{i}| |proph0|) (let ((.def_24 (not |!pc[0]|))) (let ((.def_25 (not |!pc[1]|))) (let ((.def_27 (not |!pc[2]|))) (let ((.def_28 (and (and .def_24 .def_25) .def_27))) (let ((.def_29 (not |!pc[3]|))) (let ((.def_64 (= |!{i}.next| 0))) (let ((.def_72 (not |!pc[1].next|))) (let ((.def_74 (and .def_72 |!pc[0].next|))) (let ((.def_76 (not |!pc[2].next|))) (let ((.def_79 (not |!pc[3].next|))) (let ((.def_80 (and (and .def_74 .def_76) .def_79))) (let ((.def_85 (= (select |!{a1.1}| |!{x}|) (select |!{a6.6}| |!{x}|)))) (let ((.def_87 (= |!{a1.1}| |!{a1.1}.next|))) (let ((.def_89 (= |!{a2.2}| |!{a2.2}.next|))) (let ((.def_91 (= |!{a3.3}| |!{a3.3}.next|))) (let ((.def_93 (= |!{a4.4}| |!{a4.4}.next|))) (let ((.def_95 (= |!{a5.5}| |!{a5.5}.next|))) (let ((.def_97 (= |!{a6.6}| |!{a6.6}.next|))) (let ((.def_99 (= |!{N}| |!{N}.next|))) (let ((.def_101 (= |!{i}| |!{i}.next|))) (let ((.def_103 (= |!{x}| |!{x}.next|))) (let ((.def_105 (<= |!{N}| |!{x}|))) (let ((.def_106 (not .def_105))) (let ((.def_108 (and |!pc[1].next| |!pc[0].next|))) (let ((.def_111 (and |!pc[1]| .def_24))) (let ((.def_113 (and .def_29 (and .def_27 .def_111)))) (let ((.def_121 (and .def_87 .def_89))) (let ((.def_122 (and .def_91 .def_121))) (let ((.def_123 (and .def_93 .def_122))) (let ((.def_124 (and .def_95 .def_123))) (let ((.def_126 (and .def_99 (and .def_97 .def_124)))) (let ((.def_127 (and .def_101 .def_126))) (let ((.def_128 (and (= (+ |!{x}| (* (- 1) |!{x}.next|)) (- 1)) .def_127))) (let ((.def_131 (not |!pc[0].next|))) (let ((.def_132 (and |!pc[1].next| .def_131))) (let ((.def_134 (and .def_79 (and .def_76 .def_132)))) (let ((.def_147 (and .def_72 .def_131))) (let ((.def_154 (and |!pc[1]| |!pc[0]|))) (let ((.def_169 (= (+ |!{i}| (* (- 1) |!{i}.next|)) (- 1)))) (let ((.def_172 (<= |!{N}| |!{i}|))) (let ((.def_173 (not .def_172))) (let ((.def_175 (and |!pc[0]| .def_25))) (let ((.def_177 (and .def_29 (and |!pc[2]| .def_175)))) (let ((.def_179 (and .def_79 (and .def_74 |!pc[2].next|)))) (let ((.def_199 (and .def_29 (and |!pc[2]| .def_111)))) (let ((.def_201 (and .def_79 (and |!pc[2].next| .def_132)))) (let ((.def_207 (and .def_172 (and .def_103 (and .def_64 .def_126))))) (let ((.def_222 (and .def_29 (and |!pc[2]| .def_154)))) (let ((.def_224 (and .def_79 (and |!pc[2].next| .def_108)))) (let ((.def_242 (and |!pc[3]| .def_28))) (let ((.def_244 (and |!pc[3].next| (and .def_76 .def_147)))) (let ((.def_266 (and .def_29 (and .def_27 .def_175)))) (and (= proph0 proph0.next) (or (or (or (or (or (or (or (and (and (not (<= nd<0> 0)) (and (and (and (and (and (and (and (and (= |!{a1.1}.next| |%{a1.1}#1|) (= |!{a2.2}.next| |%{a2.2}#1|)) (= |!{a3.3}.next| |%{a3.3}#1|)) (= |!{a4.4}.next| |%{a4.4}#1|)) (= |!{a5.5}.next| |%{a5.5}#1|)) (= |!{a6.6}.next| |%{a6.6}#1|)) (= nd<0> |!{N}.next|)) .def_64) (= |!{x}.next| |%{x}#1|))) (and (and .def_28 .def_29) .def_80)) (or (or (and (and (and (and (and (and (and (and (and (and (and (not .def_85) .def_87) .def_89) .def_91) .def_93) .def_95) .def_97) .def_99) .def_101) .def_103) .def_106) (and (and .def_79 (and .def_76 .def_108)) .def_113)) (and (and .def_106 (and .def_85 .def_128)) (and .def_113 .def_134))) (and (and .def_103 (and .def_101 (and .def_99 (and .def_97 (and .def_95 (and .def_93 (and .def_91 (and .def_89 (and .def_87 .def_105))))))))) (and .def_113 (and .def_79 (and |!pc[2].next| .def_147)))))) (and .def_128 (and .def_134 (and .def_29 (and .def_27 .def_154))))) (or (and (and (and .def_103 (and (and .def_99 (and .def_124 (= |!{a6.6}.next| (store |!{a6.6}| |!{i}| (select |!{a5.5}| |!{i}|))))) .def_169)) .def_173) (and .def_177 .def_179)) (and (and .def_172 (and .def_127 (= |!{x}.next| 0))) (and .def_134 .def_177)))) (or (and (and .def_173 (and .def_103 (and .def_169 (and .def_99 (and .def_97 (and .def_123 (= |!{a5.5}.next| (store |!{a5.5}| |!{i}| (select |!{a4.4}| |!{i}|))))))))) (and .def_199 .def_201)) (and (and .def_179 .def_199) .def_207))) (or (and (and .def_173 (and .def_103 (and .def_169 (and .def_99 (and .def_97 (and .def_95 (and .def_122 (= |!{a4.4}.next| (store |!{a4.4}| |!{i}| (select |!{a3.3}| |!{i}|)))))))))) (and .def_222 .def_224)) (and .def_207 (and .def_201 .def_222)))) (or (and (and .def_173 (and .def_103 (and .def_169 (and .def_99 (and .def_97 (and .def_95 (and .def_93 (and .def_121 (= |!{a3.3}.next| (store |!{a3.3}| |!{i}| (select |!{a2.2}| |!{i}|))))))))))) (and .def_242 .def_244)) (and .def_207 (and .def_224 .def_242)))) (or (and (and .def_173 (and .def_103 (and .def_169 (and .def_99 (and .def_97 (and .def_95 (and .def_93 (and .def_91 (and (= |!{a1.1}.next| (store |!{a1.1}| |!{i}| nd_char<0>)) (= |!{a2.2}.next| (store |!{a2.2}| |!{i}| nd_char<0>))))))))))) (and .def_80 .def_266)) (and .def_207 (and .def_244 .def_266)))))))))))))))))))))))))))))))))))))))))))))))))))))))))) (state |!pc[3].next| |!pc[2].next| |!pc[1].next| |!pc[0].next| |!{a2.2}.next| |!{a1.1}.next| |!{a3.3}.next| |!{a4.4}.next| |!{a5.5}.next| |!{a6.6}.next| |!{N}.next| |!{x}.next| |!{i}.next| |proph0.next|))))
(assert (forall ((|!pc[3]| Bool) (|!pc[2]| Bool) (|!pc[1]| Bool) (|!pc[0]| Bool) (|!{a2.2}| (Array Int Int)) (|!{a1.1}| (Array Int Int)) (|!{a3.3}| (Array Int Int)) (|!{a4.4}| (Array Int Int)) (|!{a5.5}| (Array Int Int)) (|!{a6.6}| (Array Int Int)) (|!{N}| Int) (|!{x}| Int) (|!{i}| Int) (|proph0| Int) (|proph0.next| Int) (|nd<0>| Int) (|!{a1.1}.next| (Array Int Int)) (|%{a1.1}#1| (Array Int Int)) (|!{a2.2}.next| (Array Int Int)) (|%{a2.2}#1| (Array Int Int)) (|!{a3.3}.next| (Array Int Int)) (|%{a3.3}#1| (Array Int Int)) (|!{a4.4}.next| (Array Int Int)) (|%{a4.4}#1| (Array Int Int)) (|!{a5.5}.next| (Array Int Int)) (|%{a5.5}#1| (Array Int Int)) (|!{a6.6}.next| (Array Int Int)) (|%{a6.6}#1| (Array Int Int)) (|!{N}.next| Int) (|!{i}.next| Int) (|!{x}.next| Int) (|%{x}#1| Int) (|!pc[1].next| Bool) (|!pc[0].next| Bool) (|!pc[2].next| Bool) (|!pc[3].next| Bool) (|nd_char<0>| Int)) (=> (state |!pc[3]| |!pc[2]| |!pc[1]| |!pc[0]| |!{a2.2}| |!{a1.1}| |!{a3.3}| |!{a4.4}| |!{a5.5}| |!{a6.6}| |!{N}| |!{x}| |!{i}| |proph0|) (or (not (= |!{x}| proph0)) (not (and (not |!pc[3]|) (and (not |!pc[2]|) (and |!pc[1]| |!pc[0]|))))))))
(check-sat)
